$molecule
0 1
  N   -0.3244113    2.9659345   -0.4682977
  C   -0.5281266    2.2896833    0.7295237
  O   -0.3819655    0.9425448    0.5567483
  C   -0.5647396    0.1180653    1.7109050
  C   -0.3511198   -1.3118593    1.2540245
  O   -0.8017311    2.8237180    1.7974405
  H   -0.1048960    2.4872869   -1.3063728
  H   -0.4001874    3.9525269   -0.4854249
  H   -1.5820935    0.2705389    2.1175068
  H    0.1602004    0.4106608    2.4935494
  H    0.6563169   -1.4705213    0.8472100
  H   -1.0674146   -1.6094711    0.4769600
  H   -0.4779403   -1.9974582    2.1014344
$end

$rem
   BASIS  =  6-31G
   GUI  =  2
   JOB_TYPE  =  Optimization
   METHOD  =  B3LYP
   SCF_CONVERGENCE  =  8
   max_scf_cycles = 2
$end


