$molecule
0 1
  N   -0.1251982    0.2112602   -0.2279000
  C    0.0002018   -1.2288398   -0.2126000
  N   -1.1719982   -2.0585398   -0.3503000
  C   -1.3828982    0.8685602    0.0274000
  C   -2.5182982   -0.0361398    0.0817000
  C   -2.4026982   -1.4236398   -0.0662000
  N   -3.8945982    0.2075602    0.2783000
  C   -4.5571982   -1.0119398    0.2532000
  N   -3.6596982   -2.0102398    0.0426000
  C   -1.0491982   -3.5188398   -0.1675000
  O    1.1076018   -1.7472398   -0.1693000
  O   -1.4210982    2.0829602    0.1591000
  C   -4.5155982    1.5116602    0.5032000
  C    1.1241018    1.0089602   -0.1968000
  H   -5.6330982   -1.1701398    0.3762000
  H   -0.2236982   -3.8960398   -0.7865000
  H   -1.9767982   -4.0118398   -0.4868000
  H   -0.8492982   -3.7904398    0.8788000
  H   -4.1182982    2.2563602   -0.2017000
  H   -4.3101982    1.8706602    1.5221000
  H   -5.6032982    1.4429602    0.3695000
  H    1.8899018    0.5418602   -0.8314000
  H    1.5189018    1.0876602    0.8255000
  H    0.9371018    2.0215602   -0.5793000
$end

$rem
   BASIS  =  6-31G
   GUI  =  2
   JOB_TYPE  =  Optimization
   METHOD  =  B3LYP
   SCF_CONVERGENCE  =  8
   SCF_MAX_CYCLES  =  2
$end


