$molecule
0 1
C    0.00000    0.00000   -0.00000
H    0.61776   -0.61776    0.61776
H    0.61776    0.61776   -0.61776
H   -0.61776    0.61776    0.61776
H   -0.61776   -0.61776   -0.61776
$end

$rem
JOBTYPE spe
METHOD b3lyp
BASIS 6-31G
$end
