$molecule
-1 1
--
 -1 1
 N      2.8353897036      0.1640928410      0.0866323157
 H      3.2181753590      1.0137974605     -0.3109184985
 H      3.3026133284     -0.6477276962     -0.2998605452
--
 0 1
 C     -0.7494590391      1.1735974805     -0.0395391009
 C      0.6440333549      1.2573414834     -0.0033430971
 C      1.4247175302      0.0907830156      0.0137225274
 C      0.7731200100     -1.1519584249      0.0006614575
 C     -0.6205536292     -1.2190430343     -0.0352412666
 C     -1.4088712153     -0.0623768375     -0.0586947008
 C     -2.9514546861     -0.1521262234     -0.1080976771
 O     -3.4267359205     -1.3139164604     -0.1216652762
 O     -3.5578958453      0.9464794312     -0.1306363619
 H     -1.3727357805      2.0687529753     -0.0572548138
 H      1.1380669280      2.2332517776      0.0129994678
 H      1.3689897356     -2.0696761592      0.0197937163
 H     -1.1430198336     -2.1767416294     -0.0495681465
$end

$rem
   basis = def2-svpd
   job_type = eda
   exchange = b3lyp
   dft_d = d3_bj
   scf_convergence = 8
   sym_ignore = true
$end
