$molecule
-1 1
--
 -1 1
 C      0.9669228532     -0.5250054534     -0.0078073898
 N      2.4000353121     -0.3303237623      0.0165944944
 H      0.4773032496      0.3719433985      0.3938400770
 H      0.6839136214     -1.3763269836      0.6281613883
 H      0.5682226050     -0.7271386905     -1.0214813214
 H      2.6887131025      0.6146478422     -0.1980681714
--
 0 1
 C      3.2492237183     -1.3027971433     -0.5443586572
 C      4.5923979801     -0.9787899366     -0.8123394059
 C      5.4493436583     -1.9439022762     -1.3455817829
 C      4.9918017043     -3.2360802925     -1.6166680431
 C      3.6572746907     -3.5708601736     -1.3572160107
 C      2.7991691623     -2.6011931204     -0.8260880989
 C      3.1153150460     -4.9945405819     -1.6535615400
 O      1.9001297153     -5.1751185635     -1.3959875005
 O      3.9507876496     -5.8062428857     -2.1173578576
 H      4.9586228843      0.0287405848     -0.5952439876
 H      6.4897849207     -1.6774567313     -1.5500240440
 H      5.6377745693     -4.0097874690     -2.0307506412
 H      1.7716935571     -2.9173677617     -0.6531315077
$end

$rem
   basis = def2-svpd
   job_type = eda
   exchange = b3lyp
   dft_d = d3_bj
   scf_convergence = 8
   sym_ignore = true
$end
