$molecule
-1 1
--
 -1 1
 N      4.5456695873     -4.7823700100     -2.4827216576
 C      4.8509112324     -5.9191851322     -1.6346976316
 C      5.5070600616     -4.6159316816     -3.5460261077
 H      4.0670483627     -6.0683077799     -0.8872285761
 H      5.8150724921     -5.7938053860     -1.0955717867
 H      4.9182673395     -6.8316516088     -2.2464648672
 H      5.1484128240     -3.8746785168     -4.2711165142
 H      5.6358848733     -5.5750056531     -4.0674634740
 H      6.5085069190     -4.2907069736     -3.1876234028
--
 0 1
 O      1.5358888129     -0.2128299233      0.9335414832
 C      2.4915035671     -0.0149703978      0.1444912555
 O      3.0537556236      1.0650720739     -0.1584410233
 C      3.0523919195     -1.2765620669     -0.5500014823
 C      4.1131896040     -1.1980350676     -1.4544445107
 C      4.6287948083     -2.3362038713     -2.0848733440
 C      4.0800625551     -3.6048910888     -1.8310098249
 C      3.0028948230     -3.6863509987     -0.9267917418
 C      2.5087715242     -2.5457002136     -0.3004562066
 H      4.5290497659     -0.2091490082     -1.6502950628
 H      5.4664558331     -2.2261431543     -2.7721796300
 H      2.5314803596     -4.6520764570     -0.7358674785
 H      1.6705471117     -2.6019270845      0.3951415838
$end

$rem
   basis = def2-svpd
   job_type = eda
   exchange = b3lyp
   dft_d = d3_bj
   scf_convergence = 8
   sym_ignore = true
$end
