$molecule
-1 1
--
 -1 1
 O      2.7778968786      0.1197603115     -0.0277197331
 H      3.0653166946      1.0383235448     -0.0420279233
--
 0 1
 C     -0.7659463961      1.1695333088     -0.0631821123
 C      0.6291776279      1.2550699981     -0.0530306984
 C      1.3962321980      0.0853201518     -0.0383382103
 C      0.7672511738     -1.1619249076     -0.0330059159
 C     -0.6276016107     -1.2267588577     -0.0426098389
 C     -1.4171920711     -0.0697733527     -0.0579832785
 C     -2.9622634243     -0.1616589682     -0.0692685719
 O     -3.4346661898     -1.3236866669     -0.0609023598
 O     -3.5680792924      0.9369006267     -0.0856536666
 H     -1.3929191565      2.0618636128     -0.0754661578
 H      1.1265052920      2.2308260069     -0.0566282522
 H      1.3800641820     -2.0651108385     -0.0213873022
 H     -1.1508659059     -2.1838839698     -0.0385259787
$end

$rem
   basis = def2-svpd
   job_type = eda
   exchange = b3lyp
   dft_d = d3_bj
   scf_convergence = 8
   sym_ignore = true
$end
