$molecule
-1 1
--
 -1 1
 C      1.0796917649     -0.7811413465      0.1051427379
 C      2.5488426800     -0.4063340248      0.1721548501
 O      3.2889226831     -1.4421091853     -0.4263476318
 H      0.4627313608      0.0045744355      0.5642326196
 H      0.9014327867     -1.7260387884      0.6366210888
 H      0.7661089461     -0.9110081895     -0.9397557567
 H      2.8668212393     -0.2659357155      1.2218824774
 H      2.7295937266      0.5484429566     -0.3553750724
--
 0 1
 C      4.6618419435     -1.3348357321     -0.4946891953
 C      5.3770907216     -0.2334552611     -0.0095299032
 C      6.7751998389     -0.2322847952     -0.1354774457
 C      7.4424048553     -1.3009173510     -0.7277902389
 C      6.7201684862     -2.4040872395     -1.2139266639
 C      5.3311624528     -2.4083726240     -1.0911012456
 C      7.4458808703     -3.6039636350     -1.8779330409
 O      6.7012858042     -4.5268862167     -2.2839920820
 O      8.6953883235     -3.5125113942     -1.9316334349
 H      4.8722210562      0.6109868105      0.4569672487
 H      7.3373597308      0.6256404969      0.2419220017
 H      8.5264156989     -1.3241923587     -0.8347471639
 H      4.7790550303     -3.2675408420     -1.4716541489
$end

$rem
   basis = def2-svpd
   job_type = eda
   exchange = b3lyp
   dft_d = d3_bj
   scf_convergence = 8
   sym_ignore = true
$end
