$molecule
-1 1
--
 -1 1
 C      2.8741723870      0.1545488623     -0.1246951614
 F      3.3424859099      0.8277818390     -1.2123992496
 F      3.3787739762      0.8195435004      0.9518222720
 F      3.4815956352     -1.0533098766     -0.1390492387
--
 0 1
 C     -0.7632863060      1.1806904731     -0.0803035490
 C      0.6277469531      1.2485679155     -0.1013211763
 C      1.3829314521      0.0648120658     -0.1007130586
 C      0.7332941497     -1.1752906006     -0.0790273529
 C     -0.6606271151     -1.2264344358     -0.0579717492
 C     -1.4271854921     -0.0556651186     -0.0585177272
 C     -2.9771175537     -0.1294803240     -0.0364546609
 O     -3.4554927982     -1.2869236496     -0.0173447846
 O     -3.5633539697      0.9772433669     -0.0405350749
 H     -1.3840961811      2.0768938743     -0.0809796395
 H      1.1327378641      2.2154395166     -0.1196092620
 H      1.3189193211     -2.0940380667     -0.0791955144
 H     -1.1994182324     -2.1742593421     -0.0410850728
$end

$rem
   basis = def2-svpd
   job_type = eda
   exchange = b3lyp
   dft_d = d3_bj
   scf_convergence = 8
   sym_ignore = true
$end
