$molecule
-1 1
--
 -1 1
 N      2.8442890909      0.1415514670     -0.0711666295
 O      3.3793703636      1.2495841825     -0.0739000181
 O      3.4827586766     -0.9101995316     -0.0674153685
--
 0 1
 C     -0.7430730003      1.1756665014     -0.0758718570
 C      0.6455008005      1.2579904594     -0.0749023959
 C      1.3916933062      0.0718370225     -0.0721266561
 C      0.7662800063     -1.1819498525     -0.0702828069
 C     -0.6229490547     -1.2385252940     -0.0713040101
 C     -1.3966915693     -0.0676137879     -0.0741536048
 C     -2.9470021323     -0.1518499071     -0.0756330373
 O     -3.4137095740     -1.3133909269     -0.0727167595
 O     -3.5370376044      0.9518989657     -0.0796370091
 H     -1.3717428194      2.0659443595     -0.0780697309
 H      1.1630966671      2.2144903975     -0.0761850174
 H      1.3758191721     -2.0830587887     -0.0680206285
 H     -1.1589323290     -2.1876652667     -0.0698644703
$end

$rem
   basis = def2-svpd
   job_type = eda
   exchange = b3lyp
   dft_d = d3_bj
   scf_convergence = 8
   sym_ignore = true
$end
