$molecule
-1 1
--
 -1 1
 C      0.9017185977     -0.4854216994     -0.2917283259
 O      2.2672357898     -0.1743837821     -0.4422483968
 H      0.3995493267      0.4457198826     -0.0038275260
 H      0.7426902235     -1.2459163397      0.4912347195
 H      0.4661013309     -0.8625390290     -1.2324621912
--
 0 1
 C      3.1183918024     -1.1938806224     -0.8117503944
 C      4.4681201613     -0.8505300602     -0.9666592137
 C      5.3820937105     -1.8377625910     -1.3398536847
 C      4.9645480059     -3.1544292482     -1.5593264657
 C      3.6172533497     -3.4965616151     -1.4048714288
 C      2.6978115178     -2.5077913806     -1.0298857193
 C      3.1191917093     -4.9473995236     -1.6399294335
 O      1.8908428472     -5.1302198800     -1.4566781215
 O      3.9971889576     -5.7716709946     -1.9857109304
 H      4.7758352855      0.1815251513     -0.7926028483
 H      6.4349354943     -1.5700967096     -1.4601797166
 H      5.6568468050     -3.9433687688     -1.8524012197
 H      1.6655350849     -2.8372627896     -0.9255991032
$end

$rem
   basis = def2-svpd
   job_type = eda
   exchange = b3lyp
   dft_d = d3_bj
   scf_convergence = 8
   sym_ignore = true
$end
