$molecule
-1 1
--
 -1 1
 N      4.2643220443      4.5756797765     -2.8093142002
 O      4.5403927861      5.7430093876     -2.0211118374
 H      5.1477776418      4.3544214087     -3.2615126761
 H      3.8849342323      6.3800199176     -2.3252542718
--
 0 1
 O      2.8518670582     -1.1284818630     -0.2136829634
 C      2.3430401316     -0.0328534819      0.1251669021
 O      1.4631028868      0.1966179499      0.9889028693
 C      2.8737498052      1.2080197136     -0.6308683060
 C      2.3898601238      2.4916040176     -0.3469369644
 C      2.8497382269      3.6146491497     -1.0362370570
 C      3.8339435387      3.4701857737     -2.0218965138
 C      4.3403914659      2.1939685624     -2.3054161723
 C      3.8534455100      1.0785826943     -1.6219946404
 H      1.6266360175      2.5727636264      0.4278376012
 H      2.4570312393      4.6063835258     -0.8099125067
 H      5.1155215138      2.0778189130     -3.0692762990
 H      4.2259857778      0.0740909282     -1.8262329640
$end

$rem
   basis = def2-svpd
   job_type = eda
   exchange = b3lyp
   dft_d = d3_bj
   scf_convergence = 8
   sym_ignore = true
$end
