$molecule
-1 1
--
 -1 1
 N      4.5357630875      4.6193755960     -2.6230703574
 C      4.5148465631      5.9321871670     -2.0188417557
 C      5.2895974321      6.9333333741     -2.8658761899
 H      5.4038426378      4.4032770760     -3.0975464844
 H      4.9214867867      5.9175416939     -0.9862173213
 H      3.4684685329      6.2649044807     -1.9279098302
 H      6.3504291520      6.6470074546     -2.9414972332
 H      5.2448523501      7.9367107979     -2.4202686193
 H      4.8751322761      6.9829460740     -3.8829461891
--
 0 1
 O      2.6920307458     -1.1244844233     -0.4082491926
 C      2.3141689215     -0.0167978008      0.0464310575
 O      1.5218049930      0.2170748459      0.9912934777
 C      2.9069033870      1.2266835596     -0.6522802887
 C      2.5758478476      2.5194440603     -0.2396001681
 C      3.1095252598      3.6524812002     -0.8632216299
 C      3.9985279336      3.5116269483     -1.9418646497
 C      4.3359984439      2.2114422440     -2.3632711863
 C      3.7986806183      1.0957177526     -1.7268278933
 H      1.8806971511      2.6107388537      0.5959195005
 H      2.8278164615      4.6433175674     -0.5071796249
 H      5.0230387384      2.0874531502     -3.2062908206
 H      4.0527306802      0.0825183276     -2.0416246012
$end

$rem
   basis = def2-svpd
   job_type = eda
   exchange = b3lyp
   dft_d = d3_bj
   scf_convergence = 8
   sym_ignore = true
$end
