$molecule
-1 1
--
 -1 1
 S      3.1828586710      0.4023741271      0.2768433053
 H      3.4779918994      0.4807219270     -1.0428457384
--
 0 1
 C     -0.8116891877      1.2335282256      0.0639594652
 C      0.5743448015      1.3762005486      0.1567209320
 C      1.3932093124      0.2390630209      0.1267125968
 C      0.8144370352     -1.0317751232      0.0159786831
 C     -0.5722530763     -1.1576431488     -0.0774985448
 C     -1.4041244188     -0.0311218633     -0.0577760320
 C     -2.9440150240     -0.1865698839     -0.1618447772
 O     -3.3567995964     -1.3650142825     -0.2696077489
 O     -3.5941471648      0.8840142350     -0.1265297256
 H     -1.4803209958      2.0949855234      0.0830177172
 H      1.0282164064      2.3633806131      0.2520911378
 H      1.4554805125     -1.9145251146      0.0043508877
 H     -1.0553991745     -2.1314788044     -0.1669921582
$end

$rem
   basis = def2-svpd
   job_type = eda
   exchange = b3lyp
   dft_d = d3_bj
   scf_convergence = 8
   sym_ignore = true
$end
