$molecule
-1 1
--
 -1 1
 C     -2.4136116842      2.0619425538     -2.3819843696
 C     -0.9586339427      1.6133436576     -2.5817800929
 H     -2.7895410080      2.6175013594     -3.2562534692
 H     -2.4982430617      2.7085887357     -1.4968313483
 H     -3.0652049987      1.1912858325     -2.2180573120
 H     -0.3302923796      2.4975059790     -2.7769740585
 H     -0.8975458069      0.9822378256     -3.4832061282
--
 0 1
 C     -0.4153679221      0.8507943996     -1.3952154177
 C      0.1846045653      1.5160796126     -0.3153880332
 C      0.6301877521      0.8096565805      0.8044851485
 C      0.4935277994     -0.5823983279      0.8802396865
 C     -0.1010650714     -1.2471727396     -0.1994459571
 C     -0.5468313756     -0.5439082702     -1.3199338527
 C      0.9946761094     -1.3699064457      2.1149497460
 O      1.5223462503     -0.6781295952      3.0183717143
 O      0.8167811383     -2.6109242957      2.0720767143
 H      0.3040537098      2.6027484721     -0.3594251346
 H      1.1026448812      1.3107645332      1.6499328370
 H     -0.1923440620     -2.3317190865     -0.1276174589
 H     -1.0036808929     -1.0824007809     -2.1560332137
$end

$rem
   basis = def2-svpd
   job_type = eda
   exchange = b3lyp
   dft_d = d3_bj
   scf_convergence = 8
   sym_ignore = true
$end
