$molecule
-1 1
--
 -1 1
 C      4.4307992143      2.3384831924     -4.9747620045
 H      4.7595334944      1.5251146480     -5.6498396616
 H      3.6464602874      2.9117766841     -5.4886574854
 O      5.5011397719      3.2687087038     -4.8024427526
 C      6.6326503064      2.7188111523     -4.1703189338
 H      7.3973012464      3.5055133963     -4.1323128417
 H      7.0290441213      1.8556125881     -4.7390856805
 H      6.4045214472      2.3803437455     -3.1465100023
--
 0 1
 O      2.6931279134     -1.1968676082      0.2283539599
 C      2.4810142792      0.0299441999      0.0803470186
 O      1.9124935751      0.8355687450      0.8546219814
 C      2.9932103117      0.6364395189     -1.2498625485
 C      2.8357376864      2.0028777348     -1.5257547728
 C      3.2876939580      2.5507471792     -2.7260712244
 C      3.9160858343      1.7433056023     -3.6876869404
 C      4.0741745794      0.3785592594     -3.4129718724
 C      3.6169538250     -0.1676674390     -2.2111450714
 H      2.3390499275      2.6076578026     -0.7667211783
 H      3.1604470320      3.6171355588     -2.9288436939
 H      4.5621016840     -0.2608837114     -4.1546222385
 H      3.7308195046     -1.2273409528     -1.9803440571
$end

$rem
   basis = def2-svpd
   job_type = eda
   exchange = b3lyp
   dft_d = d3_bj
   scf_convergence = 8
   sym_ignore = true
$end
