$molecule
-1 1
--
 -1 1
 C     -2.8748240822     -0.0833002035     -0.2636149651
 Cl     -3.7549316070      0.2375232159      1.3548600188
 H     -3.2326535766     -1.0760970737     -0.5550621501
 H     -3.2855096010      0.6769594366     -0.9355975721
--
 0 1
 C     -0.7055033596      1.1832449927     -0.4017869510
 C      0.6871793149      1.2244245834     -0.3500320329
 C      1.4304631153      0.0737540131     -0.0521792707
 C      0.7407400346     -1.1191108623      0.2053658458
 C     -0.6507274262     -1.1668827993      0.1538533192
 C     -1.3939355325     -0.0171951484     -0.1580011411
 C      2.9782681551      0.1115521298     -0.0230261209
 O      3.4910729435      1.2281893533     -0.2687800700
 O      3.5348551323     -0.9803622171      0.2384583297
 H     -1.2750783303      2.0857488002     -0.6384580416
 H      1.2440750570      2.1401984868     -0.5484039958
 H      1.3388652363     -2.0015801476      0.4335230916
 H     -1.1769154735     -2.1042765599      0.3531317063
$end

$rem
   basis = def2-svpd
   job_type = eda
   exchange = b3lyp
   dft_d = d3_bj
   scf_convergence = 8
   sym_ignore = true
$end
