$molecule
-1 1
--
 -1 1
 C     -3.5991069188     -0.0066627300      0.3890434583
 H     -4.0129407457      1.0101155495      0.4360258286
 H     -3.9131754534     -0.5407562198      1.3009572488
 H     -4.0722659749     -0.5232086340     -0.4625356111
--
 0 1
 C     -2.0949386057      0.0176767966      0.2515136297
 C     -1.3827093045      1.2232973519      0.1908819297
 C      0.0088830324      1.2314507533      0.0539300339
 C      0.7326900492      0.0364195396     -0.0258012564
 C      0.0209963946     -1.1699117177      0.0386197595
 C     -1.3672059614     -1.1806153145      0.1752436948
 C      2.2711149673      0.0427898294     -0.1844600907
 O      2.8042792334      1.1771749620     -0.2332449756
 O      2.8115599066     -1.0876355554     -0.2477581484
 H     -1.9308589210      2.1682079442      0.2508019654
 H      0.5734773748      2.1628890283      0.0034553484
 H      0.5980741392     -2.0933057855     -0.0239405990
 H     -1.9026832120     -2.1341557981      0.2224477841
$end

$rem
   basis = def2-svpd
   job_type = eda
   exchange = b3lyp
   dft_d = d3_bj
   scf_convergence = 8
   sym_ignore = true
$end
