$molecule
-1 1
--
 -1 1
 C     -2.8692815617     -0.1216248719     -0.0720871224
 O     -3.6624964183      0.8057978664     -0.0742514537
 H     -3.2516681753     -1.1749499005     -0.0708031485
--
 0 1
 C     -0.7423201874      1.2197980179     -0.0719614252
 C      0.6463353287      1.2653642268     -0.0705027895
 C      1.4098358241      0.0829771230     -0.0676574616
 C      0.7454451960     -1.1519412264     -0.0663528222
 C     -0.6448535107     -1.2067675559     -0.0678705995
 C     -1.4075259072     -0.0236733066     -0.0706570588
 C      2.9581883848      0.1397052026     -0.0659216760
 O      3.4484604246      1.2921248644     -0.0676534092
 O      3.5315194433     -0.9739578146     -0.0627769223
 H     -1.3434969238      2.1303600127     -0.0741545585
 H      1.1936626356      2.2078194453     -0.0715135474
 H      1.3623628747     -2.0504650688     -0.0640860511
 H     -1.1621174274     -2.1706070143     -0.0668699541
$end

$rem
   basis = def2-svpd
   job_type = eda
   exchange = b3lyp
   dft_d = d3_bj
   scf_convergence = 8
   sym_ignore = true
$end
