$molecule
-1 1
--
 -1 1
 Cl      3.1507440416      0.1287787285      0.0472351929
--
 0 1
 C     -0.7493902097      1.1729209402     -0.0371653681
 C      0.6458013047      1.2464439103     -0.0059119681
 C      1.3774628951      0.0590378790      0.0067372038
 C      0.7484556922     -1.1848876152     -0.0110810406
 C     -0.6469893411     -1.2313979390     -0.0423190469
 C     -1.4145012324     -0.0604690317     -0.0555961729
 C     -2.9627412622     -0.1339637908     -0.0893259918
 O     -3.4429954194     -1.2916207774     -0.1024978166
 O     -3.5515497307      0.9720154011     -0.0996958484
 H     -1.3675378223      2.0713644175     -0.0478384892
 H      1.1604642090      2.2071819218      0.0087064784
 H      1.3425363175     -2.0990302240     -0.0002553821
 H     -1.1848594424     -2.1801938204     -0.0568517504
$end

$rem
   basis = def2-svpd
   job_type = eda
   exchange = b3lyp
   dft_d = d3_bj
   scf_convergence = 8
   sym_ignore = true
$end
