$molecule
-1 1
--
 -1 1
 C     -2.8377812767     -0.1751177538     -0.2097994240
 N     -3.9924905419     -0.2299214712     -0.3337577013
--
 0 1
 C     -0.8264283698      0.8612232409      0.7741833596
 C      0.5574224398      0.9088551841      0.9140347970
 C      1.3839287723      0.0016761730      0.2349391607
 C      0.7909627089     -0.9623352060     -0.5928986114
 C     -0.5906502843     -1.0272057411     -0.7444161101
 C     -1.4141742936     -0.1120108754     -0.0592525660
 C      2.9236505636      0.0598107993      0.3970761374
 O      3.3420158110      0.9519180071      1.1697744291
 O      3.5597644960     -0.7926306622     -0.2636448129
 H     -1.4687607205      1.5673025867      1.3026739817
 H      1.0451385733      1.6448036408      1.5530699126
 H      1.4586306009     -1.6539973000     -1.1066857093
 H     -1.0494684791     -1.7790806222     -1.3885668432
$end

$rem
   basis = def2-svpd
   job_type = eda
   exchange = b3lyp
   dft_d = d3_bj
   scf_convergence = 8
   sym_ignore = true
$end
