$molecule
-1 1
--
 -1 1
 C      4.2462209857      2.5118896714     -4.7599295698
 C      3.9189221465      3.9621167702     -5.0888611965
 O      4.8587328597      1.8377086842     -5.5799765452
 H      2.8306038967      4.1228173493     -5.0903890022
 H      4.3282330680      4.1984906054     -6.0761876881
 H      4.3466571335      4.6414054910     -4.3372871222
--
 0 1
 O      1.8989548870      1.0221130254      1.1148124039
 C      2.5147823613      0.2370078455      0.3567147839
 O      2.8084926172     -0.9687932540      0.5248328749
 C      2.9784718917      0.8483783168     -0.9900309393
 C      2.7106459318      2.1905692390     -1.2936498948
 C      3.1137243815      2.7438200679     -2.5059641056
 C      3.8043779842      1.9636233554     -3.4553985032
 C      4.0731652132      0.6149813363     -3.1488734449
 C      3.6654575468      0.0701892539     -1.9367782140
 H      2.1717473916      2.7705054455     -0.5445640881
 H      2.8861925358      3.7887976146     -2.7170280583
 H      4.6047774046      0.0157174603     -3.8886868988
 H      3.8595897630     -0.9712482781     -1.6793647918
$end

$rem
   basis = def2-svpd
   job_type = eda
   exchange = b3lyp
   dft_d = d3_bj
   scf_convergence = 8
   sym_ignore = true
$end
