$molecule
-1 1
--
 -1 1
 F      2.7290188887      0.1362195491      0.0613850883
--
 0 1
 C     -0.7615468452      1.1741988933     -0.0391943184
 C      0.6340185692      1.2545281953      0.0015704840
 C      1.3625247889      0.0706634523      0.0206894861
 C      0.7504178009     -1.1769901784      0.0007095624
 C     -0.6461012731     -1.2301251215     -0.0398796455
 C     -1.4198362764     -0.0628900087     -0.0600691358
 C     -2.9670339906     -0.1429740797     -0.1037579775
 O     -3.4448836583     -1.3019971431     -0.1166024371
 O     -3.5615481009      0.9604715335     -0.1208613835
 H     -1.3847338833      2.0689832560     -0.0556112217
 H      1.1569011210      2.2118136271      0.0185793936
 H      1.3615051844     -2.0808605268      0.0173291734
 H     -1.1802523252     -2.1809414484     -0.0563770683
$end

$rem
   basis = def2-svpd
   job_type = eda
   exchange = b3lyp
   dft_d = d3_bj
   scf_convergence = 8
   sym_ignore = true
$end
